data/solutions/recovery/wellformed/moderate/flexible/wellformed_moderate_instance89/20.sol
Elapsed time: 1.78
Upper bound: 7278.0
Planning weighted value: 572517.0
C[0]=7278.0
C[1]=7269.0
C[2]=7255.0
C[3]=7251.0
C[4]=7189.0
C[5]=7121.0
y[0]=4
y[1]=5
y[2]=3
y[3]=3
y[4]=3
y[5]=0
y[6]=1
y[7]=5
y[8]=4
y[9]=1
y[10]=0
y[11]=4
y[12]=3
y[13]=0
y[14]=4
y[15]=0
y[16]=5
y[17]=3
y[18]=1
y[19]=2
y[20]=2
y[21]=4
y[22]=3
y[23]=5
y[24]=0
y[25]=1
y[26]=3
y[27]=1
y[28]=3
y[29]=4
y[30]=0
y[31]=2
y[32]=3
y[33]=5
y[34]=5
y[35]=2
y[36]=2
y[37]=2
y[38]=4
y[39]=5
y[40]=1
y[41]=2
